NAME          DCAP_3_4_2_500_SS302
ROWS
 N  OBJ
 L  CON1
 L  CON2
 L  CON3
 L  CON4
 L  CON5
 L  CON6
 L  CON7
 L  CON8
 L  CON9
 L  CON10
 L  CON11
 L  CON12
 E  CON13
 E  CON14
 E  CON15
 E  CON16
 E  CON17
 E  CON18
 E  CON19
 E  CON20
COLUMNS
    x[1,1]    OBJ       6.180167      CON1      1.000000    
    x[1,1]    CON7      -1.000000     CON8      -1.000000   
    x[1,2]    OBJ       5.039546      CON2      1.000000    
    x[1,2]    CON8      -1.000000   
    x[2,1]    OBJ       6.732585      CON3      1.000000    
    x[2,1]    CON9      -1.000000     CON10     -1.000000   
    x[2,2]    OBJ       7.443064      CON4      1.000000    
    x[2,2]    CON10     -1.000000   
    x[3,1]    OBJ       6.563535      CON5      1.000000    
    x[3,1]    CON11     -1.000000     CON12     -1.000000   
    x[3,2]    OBJ       6.054841      CON6      1.000000    
    x[3,2]    CON12     -1.000000   
    MARKER    'MARKER'                'INTORG'
    u[1,1]    OBJ       48.076654     CON1      -1.000000   
    u[1,2]    OBJ       49.466655     CON2      -1.000000   
    u[2,1]    OBJ       49.996186     CON3      -1.000000   
    u[2,2]    OBJ       32.230043     CON4      -1.000000   
    u[3,1]    OBJ       20.066487     CON5      -1.000000   
    u[3,2]    OBJ       27.484319     CON6      -1.000000   
    y[1,1,1]  OBJ       8.988514      CON7      0.577380    
    y[1,1,1]  CON13     1.000000    
    y[1,1,2]  OBJ       8.900492      CON8      1.079423    
    y[1,1,2]  CON14     1.000000    
    y[1,2,1]  OBJ       8.789257      CON7      1.390574    
    y[1,2,1]  CON15     1.000000    
    y[1,2,2]  OBJ       7.672346      CON8      0.745977    
    y[1,2,2]  CON16     1.000000    
    y[1,3,1]  OBJ       7.008134      CON7      0.789809    
    y[1,3,1]  CON17     1.000000    
    y[1,3,2]  OBJ       5.292881      CON8      0.713606    
    y[1,3,2]  CON18     1.000000    
    y[1,4,1]  OBJ       7.467049      CON7      1.084695    
    y[1,4,1]  CON19     1.000000    
    y[1,4,2]  OBJ       6.868876      CON8      1.358611    
    y[1,4,2]  CON20     1.000000    
    y[2,1,1]  OBJ       8.288709      CON9      0.577380    
    y[2,1,1]  CON13     1.000000    
    y[2,1,2]  OBJ       9.252214      CON10     1.079423    
    y[2,1,2]  CON14     1.000000    
    y[2,2,1]  OBJ       5.297213      CON9      1.390574    
    y[2,2,1]  CON15     1.000000    
    y[2,2,2]  OBJ       9.079803      CON10     0.745977    
    y[2,2,2]  CON16     1.000000    
    y[2,3,1]  OBJ       6.262535      CON9      0.789809    
    y[2,3,1]  CON17     1.000000    
    y[2,3,2]  OBJ       7.564937      CON10     0.713606    
    y[2,3,2]  CON18     1.000000    
    y[2,4,1]  OBJ       9.195418      CON9      1.084695    
    y[2,4,1]  CON19     1.000000    
    y[2,4,2]  OBJ       8.937267      CON10     1.358611    
    y[2,4,2]  CON20     1.000000    
    y[3,1,1]  OBJ       7.530173      CON11     0.577380    
    y[3,1,1]  CON13     1.000000    
    y[3,1,2]  OBJ       8.341500      CON12     1.079423    
    y[3,1,2]  CON14     1.000000    
    y[3,2,1]  OBJ       9.045562      CON11     1.390574    
    y[3,2,1]  CON15     1.000000    
    y[3,2,2]  OBJ       5.001474      CON12     0.745977    
    y[3,2,2]  CON16     1.000000    
    y[3,3,1]  OBJ       8.295648      CON11     0.789809    
    y[3,3,1]  CON17     1.000000    
    y[3,3,2]  OBJ       7.242959      CON12     0.713606    
    y[3,3,2]  CON18     1.000000    
    y[3,4,1]  OBJ       8.778271      CON11     1.084695    
    y[3,4,1]  CON19     1.000000    
    y[3,4,2]  OBJ       7.114475      CON12     1.358611    
    y[3,4,2]  CON20     1.000000    
    z[1,1]    OBJ       708.202974    CON13     1.000000    
    z[1,2]    OBJ       604.898241    CON14     1.000000    
    z[2,1]    OBJ       779.175119    CON15     1.000000    
    z[2,2]    OBJ       633.314657    CON16     1.000000    
    z[3,1]    OBJ       946.321926    CON17     1.000000    
    z[3,2]    OBJ       898.855683    CON18     1.000000    
    z[4,1]    OBJ       587.269461    CON19     1.000000    
    z[4,2]    OBJ       932.007208    CON20     1.000000    
    MARKER    'MARKER'                 'INTEND'
RHS
    RHS       CON1      -0.000000     CON2      -0.000000   
    RHS       CON3      -0.000000     CON4      -0.000000   
    RHS       CON5      -0.000000     CON6      -0.000000   
    RHS       CON7      -0.000000     CON8      -0.000000   
    RHS       CON9      -0.000000     CON10     -0.000000   
    RHS       CON11     -0.000000     CON12     -0.000000   
    RHS       CON13     1.000000      CON14     1.000000    
    RHS       CON15     1.000000      CON16     1.000000    
    RHS       CON17     1.000000      CON18     1.000000    
    RHS       CON19     1.000000      CON20     1.000000    
BOUNDS
 BV BOUND     u[1,1]  
 BV BOUND     u[1,2]  
 BV BOUND     u[2,1]  
 BV BOUND     u[2,2]  
 BV BOUND     u[3,1]  
 BV BOUND     u[3,2]  
 BV BOUND     y[1,1,1]
 BV BOUND     y[1,1,2]
 BV BOUND     y[1,2,1]
 BV BOUND     y[1,2,2]
 BV BOUND     y[1,3,1]
 BV BOUND     y[1,3,2]
 BV BOUND     y[1,4,1]
 BV BOUND     y[1,4,2]
 BV BOUND     y[2,1,1]
 BV BOUND     y[2,1,2]
 BV BOUND     y[2,2,1]
 BV BOUND     y[2,2,2]
 BV BOUND     y[2,3,1]
 BV BOUND     y[2,3,2]
 BV BOUND     y[2,4,1]
 BV BOUND     y[2,4,2]
 BV BOUND     y[3,1,1]
 BV BOUND     y[3,1,2]
 BV BOUND     y[3,2,1]
 BV BOUND     y[3,2,2]
 BV BOUND     y[3,3,1]
 BV BOUND     y[3,3,2]
 BV BOUND     y[3,4,1]
 BV BOUND     y[3,4,2]
 BV BOUND     z[1,1]  
 BV BOUND     z[1,2]  
 BV BOUND     z[2,1]  
 BV BOUND     z[2,2]  
 BV BOUND     z[3,1]  
 BV BOUND     z[3,2]  
 BV BOUND     z[4,1]  
 BV BOUND     z[4,2]  
ENDATA
